n_res = 4;
rc = [ 7, 11, 11, 15 ];
n_tasks = 30;
d = [ 3, 10, 10, 7, 6, 9, 7, 9, 4, 4, 9, 7, 9, 5, 7, 1, 7, 2, 9, 2, 7, 3, 10, 1, 4, 4, 1, 10, 9, 8 ];
rr = [| 7, 0, 0, 0, 0, 0, 0, 0, 0, 0, 0, 0, 0, 0, 0, 0, 0, 0, 0, 0, 0, 0, 0, 0, 5, 0, 0, 0, 0, 0
      | 0, 8, 5, 0, 0, 0, 0, 0, 0, 0, 0, 9, 0, 5, 0, 2, 0, 0, 7, 0, 2, 0, 0, 0, 0, 0, 0, 6, 0, 0
      | 0, 0, 0, 10, 0, 0, 4, 0, 0, 0, 3, 0, 0, 0, 0, 0, 0, 0, 0, 3, 0, 0, 10, 0, 0, 7, 1, 0, 0, 0
      | 0, 0, 0, 0, 5, 4, 0, 10, 4, 9, 0, 0, 9, 0, 9, 0, 3, 10, 0, 0, 0, 4, 0, 1, 0, 0, 0, 0, 6, 10 |];
suc = [ { 2 }, 
        { 3 }, 
        { 4 }, 
        { 5 }, 
        { 6 }, 
        { 7 }, 
        { 8 }, 
        { 9 }, 
        { 10 }, 
        { 11 }, 
        { 12 }, 
        { 13 }, 
        { 14 }, 
        { 15 }, 
        { 16 }, 
        { 17 }, 
        { 18 }, 
        { 19 }, 
        { 20 }, 
        { 21 }, 
        { 22 }, 
        { 23 }, 
        { 24 }, 
        { 25 }, 
        { 26 }, 
        { 27 }, 
        { 28 }, 
        { 29 }, 
        { 30 }, 
        {  }]; 
